\ Equation counts
\     Total        E        G        L        N        X        C        B
\         1        0        0        1        0        0        0        0
\ 
\ Variable counts
\                  x        b        i      s1s      s2s       sc       si
\     Total     cont   binary  integer     sos1     sos2    scont     sint
\        30        0        0       30        0        0        0        0
\ 
\ Nonzero counts
\     Total    const       NL      DLL
\        60       30       30        0
\ 
Minimize
 obj: - i2 - i3 - i4 - i5 - i6 - i7 - i8 - i9 - i10 - i11 - i12 - i13 - i14 - i15 - i16 - i17 - i18 - i19 
  - i20 - i21 - i22 - i23 - i24 - i25 - i26 - i27 - i28 - i29 - i30 - i31

Subject To
 e2: - .99582461641931 i2 - .99582461641931 i3 - .99582461641931 i4 - .99582461641931 i5 - .99582461641931 i6 
  - .99582461641931 i7 - .99582461641931 i8 - .99582461641931 i9 - .99582461641931 i10 - .99582461641931 i11 
  - .99582461641931 i12 - .99582461641931 i13 - .99582461641931 i14 - .99582461641931 i15 - .99582461641931 i16 
  - .99582461641931 i17 - .99582461641931 i18 - .99582461641931 i19 - .99582461641931 i20 - .99582461641931 i21 
  - .99582461641931 i22 - .99582461641931 i23 - .99582461641931 i24 - .99582461641931 i25 - .99582461641931 i26 
  - .99582461641931 i27 - .99582461641931 i28 - .99582461641931 i29 - .99582461641931 i30 - .99582461641931 i31
   + [ i2^2 + i3^2 + i4^2 + i5^2 + i6^2 + i7^2 + i8^2 + i9^2 + i10^2 + i11^2 + i12^2 + i13^2 + i14^2 
  + i15^2 + i16^2 + i17^2 + i18^2 + i19^2 + i20^2 + i21^2 + i22^2 + i23^2 + i24^2 + i25^2 + i26^2 + i27^2 
  + i28^2 + i29^2 + i30^2 + i31^2 ] <= 0

Bounds
 -1 <= i2 <= 1
 -1 <= i3 <= 1
 -1 <= i4 <= 1
 -1 <= i5 <= 1
 -1 <= i6 <= 1
 -1 <= i7 <= 1
 -1 <= i8 <= 1
 -1 <= i9 <= 1
 -1 <= i10 <= 1
 -1 <= i11 <= 1
 -1 <= i12 <= 1
 -1 <= i13 <= 1
 -1 <= i14 <= 1
 -1 <= i15 <= 1
 -1 <= i16 <= 1
 -1 <= i17 <= 1
 -1 <= i18 <= 1
 -1 <= i19 <= 1
 -1 <= i20 <= 1
 -1 <= i21 <= 1
 -1 <= i22 <= 1
 -1 <= i23 <= 1
 -1 <= i24 <= 1
 -1 <= i25 <= 1
 -1 <= i26 <= 1
 -1 <= i27 <= 1
 -1 <= i28 <= 1
 -1 <= i29 <= 1
 -1 <= i30 <= 1
 -1 <= i31 <= 1

General
 i2 i3 i4 i5 i6 i7 i8 i9 i10 i11 i12 i13 i14 i15 i16 i17 i18 i19 i20 i21 i22 i23 i24 i25 i26
 i27 i28 i29 i30 i31

End
